CPXPARAM_TimeLimit                               7200
CPXPARAM_Read_DataCheck                          1
Parallel mode: deterministic, using up to 8 threads for concurrent optimization.
Tried aggregator 1 time.
No LP presolve or aggregator reductions.
Presolve time = 0.00 sec. (1.32 ticks)

Iteration log . . .
Iteration:     1   Dual objective     =          1197.000000
Iteration:    96   Dual objective     =          1197.000000
Perturbation started.
Iteration:   101   Dual objective     =          1197.000000
Iteration:   207   Dual objective     =          1197.014097
Iteration:   374   Dual objective     =          1197.014188
Iteration:   540   Dual objective     =          1197.014191
Iteration:   707   Dual objective     =          1197.014193
Iteration:   886   Dual objective     =          1197.014195
Iteration:  1065   Dual objective     =          1197.014195
Removing perturbation.

Dual simplex solved model.

